(set-logic QF_S)
(declare-fun var0 () String)
(assert (str.in.re var0 (re.++ (re.+ (re.union (re.* (re.+ (re.+ (re.+ (re.+ (re.+ (str.to.re "000"))))))) (re.* (re.union (re.+ (re.union (re.* (re.+ (str.to.re "11"))) (re.* (re.union (str.to.re "2") (str.to.re "333"))))) (re.+ (re.* (re.+ (re.* (str.to.re "444"))))))))) (re.* (re.+ (re.union (re.+ (re.* (re.* (re.* (re.union (str.to.re "55") (str.to.re "6")))))) (re.+ (re.+ (re.union (re.+ (re.* (str.to.re "777"))) (re.+ (re.union (str.to.re "88") (str.to.re "9"))))))))))))
(assert (<= 15 (str.len var0)))
(check-sat)